1 3 100 904427.48
1 3 200 938569.70
1 3 300 920666.58
2 3 100 1242371.81
2 3 200 1279999.14
2 3 300 1284789.46
3 3 100 1323279.14
3 3 200 1309600.91
3 3 300 1320713.05
4 3 100 1319082.99
4 3 200 1341108.25
4 3 300 1342394.32
5 3 100 1309224.42
5 3 200 1299293.85
5 3 300 1311406.95
